50
2 1 232
3 1 774
3 2 726
4 1 865
4 2 158
4 3 728
5 1 681
5 2 11
5 3 208
5 4 25
6 1 369
6 2 572
6 3 59
6 4 878
6 5 878
7 1 780
7 2 668
7 3 847
7 4 837
7 5 730
7 6 133
8 1 688
8 2 77
8 3 868
8 4 294
8 5 646
8 6 595
8 7 35
9 1 759
9 2 959
9 3 633
9 4 934
9 5 316
9 6 574
9 7 959
9 8 150
10 1 897
10 2 324
10 3 640
10 4 114
10 5 557
10 6 71
10 7 891
10 8 624
10 9 151
11 1 584
11 2 808
11 3 810
11 4 641
11 5 124
11 6 64
11 7 670
11 8 247
11 9 25
11 10 862
12 1 564
12 2 858
12 3 751
12 4 734
12 5 276
12 6 416
12 7 194
12 8 987
12 9 545
12 10 195
12 11 213
13 1 876
13 2 177
13 3 187
13 4 664
13 5 801
13 6 125
13 7 19
13 8 439
13 9 120
13 10 167
13 11 97
13 12 253
14 1 367
14 2 53
14 3 930
14 4 185
14 5 966
14 6 261
14 7 802
14 8 236
14 9 738
14 10 728
14 11 263
14 12 402
14 13 783
15 1 202
15 2 102
15 3 12
15 4 540
15 5 71
15 6 762
15 7 341
15 8 99
15 9 823
15 10 381
15 11 753
15 12 85
15 13 492
15 14 903
16 1 870
16 2 668
16 3 745
16 4 948
16 5 527
16 6 526
16 7 457
16 8 385
16 9 518
16 10 828
16 11 936
16 12 797
16 13 384
16 14 541
16 15 151
17 1 280
17 2 743
17 3 645
17 4 607
17 5 269
17 6 927
17 7 56
17 8 740
17 9 335
17 10 919
17 11 336
17 12 959
17 13 131
17 14 846
17 15 500
17 16 727
18 1 950
18 2 545
18 3 485
18 4 282
18 5 563
18 6 930
18 7 101
18 8 913
18 9 300
18 10 187
18 11 535
18 12 892
18 13 549
18 14 47
18 15 708
18 16 449
18 17 126
19 1 626
19 2 75
19 3 428
19 4 193
19 5 605
19 6 659
19 7 488
19 8 686
19 9 743
19 10 406
19 11 988
19 12 427
19 13 976
19 14 171
19 15 934
19 16 363
19 17 617
19 18 892
20 1 611
20 2 641
20 3 397
20 4 782
20 5 788
20 6 434
20 7 356
20 8 599
20 9 616
20 10 725
20 11 846
20 12 310
20 13 599
20 14 499
20 15 137
20 16 718
20 17 280
20 18 7
20 19 387
21 1 862
21 2 498
21 3 74
21 4 980
21 5 272
21 6 368
21 7 619
21 8 487
21 9 370
21 10 344
21 11 840
21 12 742
21 13 612
21 14 10
21 15 758
21 16 810
21 17 164
21 18 461
21 19 50
21 20 827
22 1 192
22 2 422
22 3 370
22 4 982
22 5 79
22 6 469
22 7 603
22 8 132
22 9 133
22 10 983
22 11 733
22 12 824
22 13 603
22 14 725
22 15 274
22 16 700
22 17 73
22 18 150
22 19 456
22 20 565
22 21 550
23 1 847
23 2 602
23 3 607
23 4 802
23 5 727
23 6 390
23 7 523
23 8 781
23 9 846
23 10 944
23 11 568
23 12 178
23 13 980
23 14 943
23 15 760
23 16 444
23 17 350
23 18 185
23 19 766
23 20 830
23 21 99
23 22 310
24 1 208
24 2 267
24 3 429
24 4 608
24 5 401
24 6 155
24 7 506
24 8 114
24 9 772
24 10 373
24 11 518
24 12 427
24 13 466
24 14 82
24 15 518
24 16 949
24 17 899
24 18 133
24 19 932
24 20 476
24 21 244
24 22 141
24 23 847
25 1 344
25 2 128
25 3 559
25 4 485
25 5 563
25 6 25
25 7 300
25 8 457
25 9 633
25 10 104
25 11 729
25 12 707
25 13 982
25 14 548
25 15 100
25 16 261
25 17 227
25 18 572
25 19 743
25 20 152
25 21 681
25 22 671
25 23 569
25 24 172
26 1 814
26 2 837
26 3 721
26 4 307
26 5 600
26 6 750
26 7 421
26 8 999
26 9 950
26 10 203
26 11 336
26 12 605
26 13 658
26 14 255
26 15 42
26 16 690
26 17 572
26 18 880
26 19 374
26 20 24
26 21 908
26 22 100
26 23 761
26 24 422
26 25 920
27 1 867
27 2 836
27 3 794
27 4 349
27 5 198
27 6 905
27 7 45
27 8 362
27 9 305
27 10 78
27 11 695
27 12 899
27 13 741
27 14 141
27 15 360
27 16 640
27 17 802
27 18 476
27 19 454
27 20 26
27 21 698
27 22 600
27 23 761
27 24 17
27 25 237
27 26 137
28 1 744
28 2 544
28 3 39
28 4 290
28 5 716
28 6 837
28 7 526
28 8 136
28 9 274
28 10 65
28 11 183
28 12 292
28 13 592
28 14 998
28 15 871
28 16 796
28 17 483
28 18 610
28 19 163
28 20 241
28 21 336
28 22 833
28 23 978
28 24 498
28 25 325
28 26 887
28 27 18
29 1 591
29 2 500
29 3 897
29 4 742
29 5 528
29 6 659
29 7 719
29 8 909
29 9 172
29 10 112
29 11 175
29 12 915
29 13 458
29 14 731
29 15 144
29 16 454
29 17 521
29 18 898
29 19 187
29 20 237
29 21 563
29 22 253
29 23 663
29 24 785
29 25 507
29 26 347
29 27 512
29 28 547
30 1 775
30 2 590
30 3 159
30 4 836
30 5 738
30 6 129
30 7 221
30 8 362
30 9 669
30 10 526
30 11 968
30 12 338
30 13 254
30 14 360
30 15 717
30 16 432
30 17 986
30 18 150
30 19 614
30 20 57
30 21 3
30 22 208
30 23 486
30 24 763
30 25 189
30 26 317
30 27 706
30 28 732
30 29 605
31 1 354
31 2 264
31 3 619
31 4 559
31 5 229
31 6 488
31 7 259
31 8 899
31 9 799
31 10 102
31 11 989
31 12 320
31 13 593
31 14 560
31 15 578
31 16 777
31 17 518
31 18 857
31 19 35
31 20 302
31 21 892
31 22 247
31 23 792
31 24 801
31 25 458
31 26 575
31 27 8
31 28 643
31 29 244
31 30 138
32 1 12
32 2 109
32 3 393
32 4 302
32 5 133
32 6 19
32 7 366
32 8 280
32 9 413
32 10 99
32 11 116
32 12 793
32 13 976
32 14 912
32 15 132
32 16 534
32 17 27
32 18 407
32 19 483
32 20 637
32 21 775
32 22 417
32 23 224
32 24 590
32 25 744
32 26 663
32 27 810
32 28 286
32 29 252
32 30 79
32 31 390
33 1 143
33 2 50
33 3 536
33 4 109
33 5 504
33 6 384
33 7 266
33 8 796
33 9 731
33 10 974
33 11 565
33 12 676
33 13 716
33 14 665
33 15 581
33 16 970
33 17 725
33 18 769
33 19 268
33 20 526
33 21 777
33 22 326
33 23 803
33 24 851
33 25 995
33 26 812
33 27 49
33 28 177
33 29 638
33 30 33
33 31 870
33 32 436
34 1 718
34 2 219
34 3 374
34 4 280
34 5 438
34 6 558
34 7 390
34 8 517
34 9 857
34 10 695
34 11 750
34 12 595
34 13 493
34 14 924
34 15 195
34 16 20
34 17 800
34 18 101
34 19 971
34 20 820
34 21 703
34 22 517
34 23 423
34 24 449
34 25 654
34 26 240
34 27 165
34 28 761
34 29 866
34 30 678
34 31 637
34 32 913
34 33 704
35 1 371
35 2 115
35 3 356
35 4 399
35 5 261
35 6 486
35 7 262
35 8 530
35 9 945
35 10 371
35 11 42
35 12 979
35 13 670
35 14 388
35 15 816
35 16 283
35 17 63
35 18 646
35 19 972
35 20 585
35 21 863
35 22 762
35 23 193
35 24 624
35 25 151
35 26 995
35 27 578
35 28 451
35 29 830
35 30 285
35 31 735
35 32 820
35 33 369
35 34 284
36 1 984
36 2 435
36 3 50
36 4 688
36 5 31
36 6 505
36 7 235
36 8 436
36 9 765
36 10 292
36 11 407
36 12 591
36 13 36
36 14 594
36 15 971
36 16 973
36 17 554
36 18 360
36 19 96
36 20 862
36 21 289
36 22 865
36 23 76
36 24 331
36 25 994
36 26 156
36 27 985
36 28 28
36 29 732
36 30 693
36 31 617
36 32 474
36 33 544
36 34 383
36 35 964
37 1 202
37 2 622
37 3 453
37 4 749
37 5 279
37 6 630
37 7 844
37 8 754
37 9 60
37 10 42
37 11 76
37 12 951
37 13 214
37 14 635
37 15 769
37 16 697
37 17 349
37 18 507
37 19 267
37 20 487
37 21 805
37 22 254
37 23 52
37 24 20
37 25 425
37 26 179
37 27 888
37 28 592
37 29 376
37 30 679
37 31 896
37 32 60
37 33 331
37 34 161
37 35 991
37 36 878
38 1 586
38 2 144
38 3 373
38 4 977
38 5 914
38 6 406
38 7 24
38 8 464
38 9 245
38 10 313
38 11 387
38 12 428
38 13 465
38 14 713
38 15 683
38 16 326
38 17 917
38 18 13
38 19 551
38 20 722
38 21 408
38 22 328
38 23 940
38 24 375
38 25 806
38 26 821
38 27 478
38 28 936
38 29 515
38 30 632
38 31 715
38 32 750
38 33 431
38 34 993
38 35 975
38 36 520
38 37 159
39 1 443
39 2 721
39 3 843
39 4 584
39 5 243
39 6 652
39 7 861
39 8 101
39 9 396
39 10 960
39 11 539
39 12 71
39 13 870
39 14 438
39 15 324
39 16 318
39 17 939
39 18 388
39 19 181
39 20 743
39 21 733
39 22 511
39 23 270
39 24 355
39 25 414
39 26 230
39 27 759
39 28 306
39 29 571
39 30 132
39 31 538
39 32 724
39 33 742
39 34 467
39 35 821
39 36 426
39 37 173
39 38 900
40 1 909
40 2 828
40 3 202
40 4 968
40 5 604
40 6 605
40 7 896
40 8 903
40 9 35
40 10 930
40 11 813
40 12 800
40 13 894
40 14 355
40 15 29
40 16 290
40 17 346
40 18 648
40 19 805
40 20 182
40 21 101
40 22 152
40 23 508
40 24 748
40 25 425
40 26 490
40 27 697
40 28 609
40 29 62
40 30 672
40 31 469
40 32 395
40 33 360
40 34 926
40 35 467
40 36 635
40 37 65
40 38 819
40 39 165
41 1 570
41 2 569
41 3 488
41 4 320
41 5 811
41 6 595
41 7 34
41 8 714
41 9 54
41 10 588
41 11 415
41 12 558
41 13 287
41 14 302
41 15 387
41 16 206
41 17 177
41 18 347
41 19 322
41 20 39
41 21 577
41 22 697
41 23 960
41 24 654
41 25 356
41 26 409
41 27 416
41 28 744
41 29 977
41 30 63
41 31 11
41 32 288
41 33 531
41 34 677
41 35 736
41 36 935
41 37 150
41 38 92
41 39 424
41 40 708
42 1 14
42 2 91
42 3 937
42 4 411
42 5 367
42 6 749
42 7 944
42 8 369
42 9 253
42 10 776
42 11 102
42 12 366
42 13 908
42 14 848
42 15 699
42 16 932
42 17 995
42 18 182
42 19 95
42 20 338
42 21 127
42 22 864
42 23 504
42 24 944
42 25 372
42 26 681
42 27 950
42 28 763
42 29 674
42 30 457
42 31 454
42 32 382
42 33 389
42 34 150
42 35 782
42 36 619
42 37 376
42 38 222
42 39 297
42 40 532
42 41 325
43 1 15
43 2 754
43 3 676
43 4 283
43 5 165
43 6 97
43 7 724
43 8 543
43 9 277
43 10 563
43 11 836
43 12 368
43 13 396
43 14 681
43 15 410
43 16 211
43 17 2
43 18 965
43 19 76
43 20 395
43 21 550
43 22 370
43 23 91
43 24 432
43 25 796
43 26 839
43 27 483
43 28 434
43 29 427
43 30 493
43 31 595
43 32 288
43 33 736
43 34 285
43 35 897
43 36 556
43 37 353
43 38 194
43 39 197
43 40 286
43 41 288
43 42 254
44 1 638
44 2 167
44 3 774
44 4 13
44 5 89
44 6 726
44 7 693
44 8 211
44 9 840
44 10 516
44 11 556
44 12 763
44 13 698
44 14 466
44 15 321
44 16 348
44 17 884
44 18 860
44 19 523
44 20 186
44 21 353
44 22 609
44 23 504
44 24 808
44 25 417
44 26 787
44 27 710
44 28 892
44 29 797
44 30 591
44 31 340
44 32 469
44 33 486
44 34 199
44 35 837
44 36 91
44 37 49
44 38 185
44 39 967
44 40 745
44 41 250
44 42 460
44 43 514
45 1 605
45 2 111
45 3 913
45 4 813
45 5 930
45 6 810
45 7 198
45 8 660
45 9 664
45 10 26
45 11 366
45 12 316
45 13 577
45 14 619
45 15 269
45 16 648
45 17 988
45 18 778
45 19 941
45 20 619
45 21 410
45 22 1000
45 23 387
45 24 674
45 25 661
45 26 549
45 27 480
45 28 735
45 29 276
45 30 259
45 31 902
45 32 847
45 33 277
45 34 815
45 35 323
45 36 690
45 37 621
45 38 894
45 39 253
45 40 501
45 41 884
45 42 792
45 43 272
45 44 128
46 1 15
46 2 408
46 3 566
46 4 233
46 5 206
46 6 733
46 7 964
46 8 903
46 9 205
46 10 206
46 11 926
46 12 159
46 13 649
46 14 569
46 15 155
46 16 131
46 17 201
46 18 107
46 19 799
46 20 895
46 21 600
46 22 397
46 23 410
46 24 223
46 25 901
46 26 940
46 27 120
46 28 763
46 29 502
46 30 320
46 31 711
46 32 385
46 33 753
46 34 745
46 35 536
46 36 714
46 37 222
46 38 131
46 39 467
46 40 93
46 41 944
46 42 69
46 43 318
46 44 481
46 45 196
47 1 346
47 2 441
47 3 45
47 4 637
47 5 859
47 6 422
47 7 447
47 8 867
47 9 84
47 10 82
47 11 76
47 12 728
47 13 455
47 14 216
47 15 740
47 16 904
47 17 296
47 18 768
47 19 555
47 20 650
47 21 179
47 22 371
47 23 52
47 24 705
47 25 839
47 26 464
47 27 747
47 28 709
47 29 22
47 30 405
47 31 676
47 32 691
47 33 901
47 34 285
47 35 656
47 36 449
47 37 929
47 38 387
47 39 270
47 40 877
47 41 271
47 42 467
47 43 832
47 44 565
47 45 181
47 46 312
48 1 840
48 2 236
48 3 959
48 4 259
48 5 659
48 6 835
48 7 374
48 8 621
48 9 452
48 10 340
48 11 661
48 12 210
48 13 606
48 14 603
48 15 499
48 16 392
48 17 155
48 18 797
48 19 573
48 20 380
48 21 960
48 22 284
48 23 616
48 24 688
48 25 641
48 26 961
48 27 53
48 28 954
48 29 526
48 30 415
48 31 626
48 32 562
48 33 115
48 34 437
48 35 631
48 36 764
48 37 804
48 38 731
48 39 644
48 40 229
48 41 897
48 42 863
48 43 866
48 44 230
48 45 131
48 46 785
48 47 466
49 1 891
49 2 241
49 3 487
49 4 549
49 5 201
49 6 305
49 7 600
49 8 632
49 9 725
49 10 879
49 11 18
49 12 755
49 13 213
49 14 176
49 15 850
49 16 597
49 17 537
49 18 788
49 19 270
49 20 247
49 21 657
49 22 711
49 23 88
49 24 485
49 25 562
49 26 675
49 27 92
49 28 720
49 29 351
49 30 30
49 31 500
49 32 951
49 33 939
49 34 694
49 35 72
49 36 394
49 37 29
49 38 920
49 39 698
49 40 638
49 41 339
49 42 877
49 43 542
49 44 465
49 45 237
49 46 314
49 47 44
49 48 729
